SAT
-72 100 -25 -20 -24 -87 40 90 5 53 63 -27 -15 -9 64 97 -6 28 7 18 -95 -23 46 14 -26 83 -44 68 29 75 98 99 79 60 -35 -69 -78 82 43 -62 -42 -59 92 -85 74 19 2 32 -51 38 -1 11 36 89 47 41 -37 70 4 93 21 -3 -61 -56 -33 71 -76 -22 80 -12 -50 16 -39 -77 -65 -96 -55 -52 -66 -58 84 86 34 94 -31 -17 -8 10 -45 57 48 73 -81 54 49 -91 -13 -30 -67 -88 0
